c FILE: myciel5.col
c SOURCE: Michael Trick (trick@cmu.edu)
c DESCRIPTION: Graph based on Mycielski transformation. 
c              Triangle free (clique number 2) but increasing
c              coloring number
p edge 47 236
b 6
e 2 1
e 3 2
e 4 1
e 5 3
e 5 4
e 6 2
e 6 4
e 7 1
e 7 3
e 8 2
e 8 5
e 9 1
e 9 5
e 10 3
e 10 4
e 11 6
e 11 7
e 11 8
e 11 9
e 11 10
e 12 2
e 12 4
e 12 7
e 12 9
e 13 1
e 13 3
e 13 6
e 13 8
e 14 2
e 14 5
e 14 7
e 14 10
e 15 1
e 15 5
e 15 6
e 15 10
e 16 3
e 16 4
e 16 8
e 16 9
e 17 2
e 17 4
e 17 11
e 18 1
e 18 3
e 18 11
e 19 2
e 19 5
e 19 11
e 20 1
e 20 5
e 20 11
e 21 3
e 21 4
e 21 11
e 22 6
e 22 7
e 22 8
e 22 9
e 22 10
e 23 12
e 23 13
e 23 14
e 23 15
e 23 16
e 23 17
e 23 18
e 23 19
e 23 20
e 23 21
e 23 22
e 24 2
e 24 4
e 24 7
e 24 9
e 24 13
e 24 15
e 24 18
e 24 20
e 25 1
e 25 3
e 25 6
e 25 8
e 25 12
e 25 14
e 25 17
e 25 19
e 26 2
e 26 5
e 26 7
e 26 10
e 26 13
e 26 16
e 26 18
e 26 21
e 27 1
e 27 5
e 27 6
e 27 10
e 27 12
e 27 16
e 27 17
e 27 21
e 28 3
e 28 4
e 28 8
e 28 9
e 28 14
e 28 15
e 28 19
e 28 20
e 29 2
e 29 4
e 29 11
e 29 13
e 29 15
e 29 22
e 30 1
e 30 3
e 30 11
e 30 12
e 30 14
e 30 22
e 31 2
e 31 5
e 31 11
e 31 13
e 31 16
e 31 22
e 32 1
e 32 5
e 32 11
e 32 12
e 32 16
e 32 22
e 33 3
e 33 4
e 33 11
e 33 14
e 33 15
e 33 22
e 34 6
e 34 7
e 34 8
e 34 9
e 34 10
e 34 17
e 34 18
e 34 19
e 34 20
e 34 21
e 35 2
e 35 4
e 35 7
e 35 9
e 35 23
e 36 1
e 36 3
e 36 6
e 36 8
e 36 23
e 37 2
e 37 5
e 37 7
e 37 10
e 37 23
e 38 1
e 38 5
e 38 6
e 38 10
e 38 23
e 39 3
e 39 4
e 39 8
e 39 9
e 39 23
e 40 2
e 40 4
e 40 11
e 40 23
e 41 1
e 41 3
e 41 11
e 41 23
e 42 2
e 42 5
e 42 11
e 42 23
e 43 1
e 43 5
e 43 11
e 43 23
e 44 3
e 44 4
e 44 11
e 44 23
e 45 6
e 45 7
e 45 8
e 45 9
e 45 10
e 45 23
e 46 12
e 46 13
e 46 14
e 46 15
e 46 16
e 46 17
e 46 18
e 46 19
e 46 20
e 46 21
e 46 22
e 47 24
e 47 25
e 47 26
e 47 27
e 47 28
e 47 29
e 47 30
e 47 31
e 47 32
e 47 33
e 47 34
e 47 35
e 47 36
e 47 37
e 47 38
e 47 39
e 47 40
e 47 41
e 47 42
e 47 43
e 47 44
e 47 45
e 47 46
